%%%%%%%%%%%%%%%%%%%%%%%%%
% WVCP parameter file that may be used in place of command line parameters


% Fix heuristics here

WVCP_SEARCH_STRATEGY						= VERTICES_GENERIC; % see enum WVCP_SEARCH
WVCP_SEARCH_RESTART							= RESTART_NONE; % see enum SEARCH_RESTART

WVCP_SEARCH_VARIABLES_COLORS		= WVCPSV(INPUT_ORDER); % see enums WVCP_SEARCH_VARIABLES and SEARCH_VARIABLES
WVCP_SEARCH_DOMAIN_COLORS				= INDOMAIN_MIN; % see enums WVCP_SEARCH_DOMAIN and SEARCH_DOMAIN 

WVCP_SEARCH_VARIABLES_WEIGHTS		= WVCPSV(INPUT_ORDER); % see enums WVCP_SEARCH_VARIABLES and SEARCH_VARIABLES
WVCP_SEARCH_DOMAIN_WEIGHTS			= INDOMAIN_SPLIT; % see enums WVCP_SEARCH_DOMAIN and SEARCH_DOMAIN 

WVCP_SEARCH_VARIABLES_VERTICES	= WVCPSV(FIRST_FAIL); % see enums WVCP_SEARCH_VARIABLES and SEARCH_VARIABLES
WVCP_SEARCH_DOMAIN_VERTICES			= INDOMAIN_SPLIT; % see enums WVCP_SEARCH_DOMAIN and SEARCH_DOMAIN 
